# Solution for model GasLib-40
# Objective value = 1.0630011445400381e+01
loadshed[innode_1] 0
loadshed[innode_2] 0
loadshed[innode_3] 0
loadshed[innode_4] 0
loadshed[innode_5] 0
loadshed[innode_6] 0
loadshed[innode_7] 0
loadshed[innode_8] 0
loadshed[source_1] -2.4193424427360233e-01
loadshed[source_2] -6.9199517467268157e-02
loadshed[source_3] 3.7837389563661650e-01
loadshed[sink_1] 0
loadshed[sink_2] 0
loadshed[sink_3] 0
loadshed[sink_4] 0
loadshed[sink_5] 0
loadshed[sink_6] 0
loadshed[sink_7] 0
loadshed[sink_8] 0
loadshed[sink_9] 0
loadshed[sink_10] 0
loadshed[sink_11] 0
loadshed[sink_12] 6.4998796099263467e-01
loadshed[sink_13] 0
loadshed[sink_14] 0
loadshed[sink_15] 0
loadshed[sink_16] 0
loadshed[sink_17] 0
loadshed[sink_18] 0
loadshed[sink_19] 0
loadshed[sink_20] 0
loadshed[sink_21] 0
loadshed[sink_22] 0
loadshed[sink_23] 0
loadshed[sink_24] 0
loadshed[sink_25] 0
loadshed[sink_26] 0
loadshed[sink_27] 0
loadshed[sink_28] 0
loadshed[sink_29] 0
flow[source_1,sink_3] 1.9633772965894832e+02
flow[innode_1,sink_16] 1.6354166666666970e+01
flow[innode_6,sink_13] 16.2061231539418
flow[sink_13,sink_14] -1.4804351272486826e-01
flow[sink_14,sink_10] -1.6502210179391536e+01
flow[sink_25,sink_26] 1.7631922503254359e+02
flow[sink_26,sink_9] 1.2396180530916131e+02
flow[sink_9,sink_18] 1.0760763864249463e+02
flow[sink_26,sink_4] 3.6003253056715621e+01
flow[sink_4,sink_20] -4.2009096855391249e+01
flow[sink_18,sink_6] 9.1253471975827964e+01
flow[sink_25,innode_8] -1.6362939632561196e+02
flow[sink_6,sink_7] 4.2190971975827779e+01
flow[sink_6,sink_22] 3.2708333333333641e+01
flow[sink_7,sink_24] 3.8432488554599622e+01
flow[sink_22,sink_1] 1.6354166666666970e+01
flow[sink_24,sink_21] 2.2078321887932955e+01
flow[sink_21,sink_12] 5.7241552212662876e+00
flow[sink_7,sink_5] -1.2595683245438465e+01
flow[sink_5,sink_17] -2.8949849912105037e+01
flow[sink_17,sink_4] -6.1658183245440341e+01
flow[sink_17,sink_8] 1.6354166666668334e+01
flow[sink_3,sink_23] 16.3541666666697
flow[sink_8,sink_20] 0
flow[sink_25,sink_20] 5.8363263522058020e+01
flow[sink_25,sink_15] -1.0361338204959847e+02
flow[sink_15,sink_29] -6.6413270512300755e+01
flow[sink_29,sink_28] 1.6354166666667879e+01
flow[sink_29,sink_2] 6.9908444870631058e+01
flow[sink_2,sink_15] 5.3554278203964387e+01
flow[sink_29,innode_7] -1.6903004871626638e+02
flow[innode_4,sink_19] 0
flow[sink_19,innode_3] 6.5564710179391838e+01
flow[innode_4,innode_5] 9.8273043512725167e+01
flow[sink_27,innode_5] -9.8273043512725167e+01
flow[sink_27,sink_19] 8.1918876846058509e+01
flow[sink_10,sink_11] 3.2708333333333641e+01
flow[sink_10,innode_2] 0
flow[sink_10,innode_3] -6.5564710179391838e+01
flow[innode_6,sink_25] -16.2061231539418
flow[sink_11,innode_1] 1.6354166666666970e+01
flow[sink_19,innode_2] 0
flow[source_3,innode_4] 9.8273043512725167e+01
flow[source_2,innode_7] 1.6903004871626638e+02
flow[sink_3,innode_8] 1.6362939632561196e+02
pressure[innode_1] 7.4583783135203930e+01
pressure[innode_2] 7.8371339412022223e+01
pressure[innode_3] 7.8226153785727973e+01
pressure[innode_4] 81.01325
pressure[innode_5] 8.0945652618718313e+01
pressure[innode_6] 7.4044029785011020e+01
pressure[innode_7] 81.01325
pressure[innode_8] 8.0356967973481446e+01
pressure[source_1] 81.01325
pressure[source_2] 81.01325
pressure[source_3] 81.01325
pressure[sink_1] 4.5775154226700884e+01
pressure[sink_2] 7.4721498566256528e+01
pressure[sink_3] 8.0356967973481446e+01
pressure[sink_4] 5.7048423538298096e+01
pressure[sink_5] 52.5354965233056
pressure[sink_6] 4.7876231837088255e+01
pressure[sink_7] 4.7297050359916220e+01
pressure[sink_8] 5.4074965890818355e+01
pressure[sink_9] 5.4206536328141787e+01
pressure[sink_10] 7.4735484442807476e+01
pressure[sink_11] 7.4583783135203930e+01
pressure[sink_12] 1.0132500000000002e+00
pressure[sink_13] 7.3954688136358115e+01
pressure[sink_14] 7.3954953072834655e+01
pressure[sink_15] 7.4546655651093388e+01
pressure[sink_16] 7.3562133300386250e+01
pressure[sink_17] 5.4692051086231977e+01
pressure[sink_18] 5.0312971236134494e+01
pressure[sink_19] 7.8371339412022223e+01
pressure[sink_20] 60.1304062152493
pressure[sink_21] 3.0502177119621154e+00
pressure[sink_22] 4.6838923369055891e+01
pressure[sink_23] 8.0192249961821659e+01
pressure[sink_24] 3.2947146136634857e+00
pressure[sink_25] 7.4044029785011020e+01
pressure[sink_26] 6.1625970312507583e+01
pressure[sink_27] 8.0130167946621924e+01
pressure[sink_28] 7.6197076097677780e+01
pressure[sink_29] 7.6492358371294955e+01
interdiction[source_1,sink_3] 0
interdiction[innode_1,sink_16] 0
interdiction[innode_6,sink_13] 0
interdiction[sink_13,sink_14] 0
interdiction[sink_14,sink_10] 0
interdiction[sink_25,sink_26] 0
interdiction[sink_26,sink_9] 0
interdiction[sink_9,sink_18] 0
interdiction[sink_26,sink_4] 0
interdiction[sink_4,sink_20] 0
interdiction[sink_18,sink_6] 0
interdiction[sink_25,innode_8] 0
interdiction[sink_6,sink_7] 0
interdiction[sink_6,sink_22] 0
interdiction[sink_7,sink_24] 0
interdiction[sink_22,sink_1] 0
interdiction[sink_24,sink_21] 0
interdiction[sink_21,sink_12] 0
interdiction[sink_7,sink_5] 0
interdiction[sink_5,sink_17] 0
interdiction[sink_17,sink_4] 0
interdiction[sink_17,sink_8] 0
interdiction[sink_3,sink_23] 0
interdiction[sink_8,sink_20] 1
interdiction[sink_25,sink_20] 0
interdiction[sink_25,sink_15] 0
interdiction[sink_15,sink_29] 0
interdiction[sink_29,sink_28] 0
interdiction[sink_29,sink_2] 0
interdiction[sink_2,sink_15] 0
interdiction[sink_29,innode_7] 0
interdiction[innode_4,sink_19] 1
interdiction[sink_19,innode_3] 0
interdiction[innode_4,innode_5] 0
interdiction[sink_27,innode_5] 0
interdiction[sink_27,sink_19] 0
interdiction[sink_10,sink_11] 0
interdiction[sink_10,innode_2] 1
interdiction[sink_10,innode_3] 0
interdiction[innode_6,sink_25] 0
interdiction[sink_11,innode_1] 0
interdiction[sink_19,innode_2] 0
interdiction[source_3,innode_4] 0
interdiction[source_2,innode_7] 0
interdiction[sink_3,innode_8] 0
WCcheckFlow[source_1,sink_3] 39
WCcheckFlow[innode_1,sink_16] 1
WCcheckFlow[innode_6,sink_13] 13
WCcheckFlow[sink_13,sink_14] 12
WCcheckFlow[sink_14,sink_10] 11
WCcheckFlow[sink_25,sink_26] 15
WCcheckFlow[sink_26,sink_9] 12
WCcheckFlow[sink_9,sink_18] 11
WCcheckFlow[sink_26,sink_4] 2
WCcheckFlow[sink_4,sink_20] 1
WCcheckFlow[sink_18,sink_6] 10
WCcheckFlow[sink_25,innode_8] -36
WCcheckFlow[sink_6,sink_7] 7
WCcheckFlow[sink_6,sink_22] 2
WCcheckFlow[sink_7,sink_24] 3
WCcheckFlow[sink_22,sink_1] 1
WCcheckFlow[sink_24,sink_21] 2
WCcheckFlow[sink_21,sink_12] 1
WCcheckFlow[sink_7,sink_5] 3
WCcheckFlow[sink_5,sink_17] 2
WCcheckFlow[sink_17,sink_4] 0
WCcheckFlow[sink_17,sink_8] 1
WCcheckFlow[sink_3,sink_23] 1
WCcheckFlow[sink_8,sink_20] 0
WCcheckFlow[sink_25,sink_20] 0
WCcheckFlow[sink_25,sink_15] 6
WCcheckFlow[sink_15,sink_29] 5
WCcheckFlow[sink_29,sink_28] 1
WCcheckFlow[sink_29,sink_2] 1
WCcheckFlow[sink_2,sink_15] 0
WCcheckFlow[sink_29,innode_7] 2
WCcheckFlow[innode_4,sink_19] 0
WCcheckFlow[sink_19,innode_3] -6
WCcheckFlow[innode_4,innode_5] -2
WCcheckFlow[sink_27,innode_5] 3
WCcheckFlow[sink_27,sink_19] -4
WCcheckFlow[sink_10,sink_11] 3
WCcheckFlow[sink_10,innode_2] 0
WCcheckFlow[sink_10,innode_3] 7
WCcheckFlow[innode_6,sink_25] -14
WCcheckFlow[sink_11,innode_1] 2
WCcheckFlow[sink_19,innode_2] 1
WCcheckFlow[source_3,innode_4] -1
WCcheckFlow[source_2,innode_7] -1
WCcheckFlow[sink_3,innode_8] 37
